SCIP Status        : solving was interrupted [time limit reached]
Total Time         :    3600.01
  solving          :    3600.01
  presolving       :       0.41 (included in solving)
  reading          :       0.00
  copying          :       1.27 (47 #copies) (minimal 0.00, maximal 0.09, average 0.03)
Original Problem   :
  Problem name     : bbbenchmark/g05_80.3.cut
  Variables        : 81 (80 binary, 0 integer, 0 implicit integer, 1 continuous)
  Constraints      : 1 initial, 1 maximal
  Objective        : minimize, 1 non-zeros (abs.min = 1, abs.max = 1)
Presolved Problem  :
  Problem name     : t_bbbenchmark/g05_80.3.cut
  Variables        : 1612 (80 binary, 0 integer, 1530 implicit integer, 2 continuous)
  Constraints      : 1534 initial, 8413 maximal
  Objective        : minimize, 1 non-zeros (abs.min = 1, abs.max = 1)
  Nonzeros         : 6307 constraint, 162 clique table
Presolvers         :   ExecTime  SetupTime  Calls  FixedVars   AggrVars   ChgTypes  ChgBounds   AddHoles    DelCons    AddCons   ChgSides   ChgCoefs
  boundshift       :       0.00       0.00      0          0          0          0          0          0          0          0          0          0
  convertinttobin  :       0.00       0.00      0          0          0          0          0          0          0          0          0          0
  domcol           :       0.00       0.00      1          0          0          0          0          0          0          0          0          0
  dualagg          :       0.00       0.00      0          0          0          0          0          0          0          0          0          0
  dualcomp         :       0.00       0.00      1          0          0          0          0          0          0          0          0          0
  dualinfer        :       0.00       0.00      0          0          0          0          0          0          0          0          0          0
  dualsparsify     :       0.00       0.00      1          0          0          0          0          0          0          0          0          0
  gateextraction   :       0.00       0.00      0          0          0          0          0          0          0          0          0          0
  implics          :       0.00       0.00      2          0          0          0          0          0          0          0          0          0
  inttobinary      :       0.00       0.00      0          0          0          0          0          0          0          0          0          0
  qpkktref         :       0.00       0.00      0          0          0          0          0          0          0          0          0          0
  redvub           :       0.00       0.00      0          0          0          0          0          0          0          0          0          0
  sparsify         :       0.00       0.00      1          0          0          0          0          0          0          0          0          0
  stuffing         :       0.00       0.00      0          0          0          0          0          0          0          0          0          0
  trivial          :       0.00       0.00      4          0          0          0          0          0          0          0          0          0
  tworowbnd        :       0.00       0.00      0          0          0          0          0          0          0          0          0          0
  dualfix          :       0.00       0.00      4          0          0          0          0          0          0          0          0          0
  genvbounds       :       0.00       0.00      0          0          0          0          0          0          0          0          0          0
  probing          :       0.22       0.00      1          0          0          0          0          0          0          0          0          0
  pseudoobj        :       0.00       0.00      1          0          0          0          1          0          0          0          0          0
  symmetry         :       0.00       0.00      0          0          0          0          0          0          0          0          0          0
  vbounds          :       0.00       0.00      1          0          0          0          0          0          0          0          0          0
  varbound         :       0.00       0.00      2          0          0          0          0          0          0          0          0          0
  and              :       0.01       0.01      2          0          0          0          0          0          0          0          0          0
  linear           :       0.00       0.00      2          0          0          0          0          0          0          0          0          0
  logicor          :       0.00       0.00      0          0          0          0          0          0          0          0          0          0
  bounddisjunction :       0.00       0.00      0          0          0          0          0          0          0          0          0          0
  nonlinear        :       0.17       0.00      5          0          0          0          1          0          0       1533          0          0
  benders          :       0.00       0.00      0          0          0          0          0          0          0          0          0          0
  components       :       0.00       0.00      1          0          0          0          0          0          0          0          0          0
  root node        :          -          -      -          0          -          -         30          -          -          -          -          -
Constraints        :     Number  MaxNumber  #Separate #Propagate    #EnfoLP    #EnfoRelax  #EnfoPS    #Check   #ResProp    Cutoffs    DomReds       Cuts    Applied      Conss   Children
  benderslp        :          0          0          0          0      98619          0          0       4211          0          0          0          0          0          0          0
  integral         :          0          0          0          0      98619          0          0       4211          0          0       3650          0          0       1941     193968
  varbound         :          1          1        204      49941          0          0          0         50          0          0       1325          0          0          0          0
  and              :       1530       1530     115265     709465          5          0          0         50     219890          0    3225729       9655       9335          0          0
  linear           :          3+         5        204     709470          5          0          0         48          8          0      76713          0          0          0          0
  logicor          :          0+      6878          0     174676          0          0          0          0        174        501         54          0          0          0          0
  bounddisjunction :          0+        18          0       2750          0          0          0          0          0          0          0          0          0          0          0
  benders          :          0          0          0          0          5          0          0         51          0          0          0          0          0          0          0
  countsols        :          0          0          0          0          5          0          0         51          0          0          0          0          0          0          0
  components       :          0          0          0          0          0          0          0          0          0          0          0          0          0          0          0
Constraint Timings :  TotalTime  SetupTime   Separate  Propagate     EnfoLP     EnfoPS     EnfoRelax   Check    ResProp    SB-Prop
  benderslp        :       0.05       0.00       0.00       0.00       0.05       0.00       0.00       0.00       0.00       0.00
  integral         :      44.31       0.00       0.00       0.00      44.30       0.00       0.00       0.01       0.00       0.00
  varbound         :       0.04       0.00       0.00       0.04       0.00       0.00       0.00       0.00       0.00       0.00
  and              :      64.97       0.01      44.01      20.42       0.00       0.00       0.00       0.00       0.17       0.36
  linear           :       1.31       0.00       0.05       1.25       0.00       0.00       0.00       0.01       0.00       0.00
  logicor          :       5.70       0.00       0.00       5.70       0.00       0.00       0.00       0.00       0.00       0.00
  bounddisjunction :       0.01       0.00       0.00       0.01       0.00       0.00       0.00       0.00       0.00       0.00
  benders          :       0.00       0.00       0.00       0.00       0.00       0.00       0.00       0.00       0.00       0.00
  countsols        :       0.00       0.00       0.00       0.00       0.00       0.00       0.00       0.00       0.00       0.00
  components       :       0.17       0.00       0.00       0.17       0.00       0.00       0.00       0.00       0.00       0.00
Propagators        : #Propagate   #ResProp    Cutoffs    DomReds
  dualfix          :          2          0          0          0
  genvbounds       :          0          0          0          0
  nlobbt           :          0          0          0          0
  obbt             :          0          0          0          0
  probing          :          0          0          0          0
  pseudoobj        :     469437          0          0         31
  redcost          :     238441          0          0     202606
  rootredcost      :         22          0          0          0
  symmetry         :          0          0          0          0
  vbounds          :      78939          0          0          0
Propagator Timings :  TotalTime  SetupTime   Presolve  Propagate    ResProp    SB-Prop
  dualfix          :       0.00       0.00       0.00       0.00       0.00       0.00
  genvbounds       :       0.50       0.00       0.00       0.49       0.00       0.01
  nlobbt           :       0.00       0.00       0.00       0.00       0.00       0.00
  obbt             :       0.00       0.00       0.00       0.00       0.00       0.00
  probing          :       0.22       0.00       0.22       0.00       0.00       0.00
  pseudoobj        :       0.52       0.00       0.00       0.50       0.00       0.02
  redcost          :       9.07       0.00       0.00       9.07       0.00       0.00
  rootredcost      :       0.47       0.00       0.00       0.46       0.00       0.01
  symmetry         :       0.20       0.00       0.00       0.20       0.00       0.00
  vbounds          :       0.38       0.00       0.00       0.38       0.00       0.00
Conflict Analysis  :       Time      Calls    Success    DomReds  Conflicts   Literals    Reconvs ReconvLits   Dualrays   Nonzeros   LP Iters   (pool size: [10000,10000])
  propagation      :       0.00        501        399          -        446       43.8          0        0.0          -          -          -
  infeasible LP    :       0.00          0          0          -          0        0.0          0        0.0          2       47.5          0
  bound exceed. LP :      10.88       9589       6312          -      77599       63.2          0        0.0          0        0.0      35692
  strong branching :       0.00          0          0          -          0        0.0          0        0.0          -          -          0
  pseudo solution  :       0.00          0          0          -          0        0.0          0        0.0          -          -          -
  applied globally :       0.18          -          -          0      23027       67.8          -          -          2          -          -
  applied locally  :          -          -          -          0          0        0.0          -          -          0          -          -
Separators         :   ExecTime  SetupTime      Calls  RootCalls    Cutoffs    DomReds  FoundCuts ViaPoolAdd  DirectAdd    Applied ViaPoolApp  DirectApp      Conss
  cut pool         :       2.42          -      21991        244          -          -      35432     659216          -          -          -          -          -    (maximal pool size:       1993)
  aggregation      :      27.69       0.00       4993        204          0          0        112        431          0         85         85          0          0
  > cmir           :          -          -          -          -          -          -          -        431          0         85         85          0          -
  > flowcover      :          -          -          -          -          -          -          -          0          0          0          0          0          -
  > knapsackcover  :          -          -          -          -          -          -          -          0          0          0          0          0          -
  cgmip            :       0.00       0.00          0          0          0          0          0          0          0          0          0          0          0
  clique           :       0.00       0.00        204        204          0          0          0          0          0          0          0          0          0
  closecuts        :       0.00       0.00          0          0          0          0          0          0          0          0          0          0          0
  convexproj       :       0.00       0.00          0          0          0          0          0          0          0          0          0          0          0
  disjunctive      :       0.00       0.00          0          0          0          0          0          0          0          0          0          0          0
  eccuts           :       0.00       0.00          0          0          0          0          0          0          0          0          0          0          0
  gauge            :       0.00       0.00          0          0          0          0          0          0          0          0          0          0          0
  gomory           :       0.00       0.00          0          0          0          0          0          0          0          0          0          0          0
  > gomorymi       :          -          -          -          -          -          -          -          0          0          0          0          0          -
  > strongcg       :          -          -          -          -          -          -          -          0          0          0          0          0          -
  impliedbounds    :       0.14       0.00       4993        204          0          0          2          1          0          1          1          0          0
  interlattice     :       0.94       0.00        160        160          0          0        160          0        160        159          0        159          0
  interminor       :       0.00       0.00          0          0          0          0          0          0          0          0          0          0          0
  intersub         :       0.20       0.00          4          4          0          0          1          0          1          1          0          1          0
  intobj           :       0.00       0.00          0          0          0          0          0          0          0          0          0          0          0
  mcf              :       0.01       0.00          1          1          0          0          0          0          0          0          0          0          0
  minor            :       0.02       0.00          0          0          0          0          0          0          0          0          0          0          0
  mixing           :       0.00       0.00       4993        204          0          0          0          0          0          0          0          0          0
  oddcycle         :       0.00       0.00          0          0          0          0          0          0          0          0          0          0          0
  rapidlearning    :       0.00       0.00          0          0          0          0          0          0          0          0          0          0          0
  rlt              :       0.00       0.00         10         10          0          0          0          0          0          0          0          0          0
  zerohalf         :      23.66       0.00       4402         20          0          0      35318     658784          0     114567     114567          0          0
Cutselectors       :   ExecTime  SetupTime      Calls  RootCalls   Selected     Forced   Filtered  RootSelec   RootForc   RootFilt 
  hybrid           :       0.54       0.00      19310        203     124148          0     544884        356          0         16
Pricers            :   ExecTime  SetupTime      Calls       Vars
  problem variables:       0.00          -          0          0
Branching Rules    :   ExecTime  SetupTime   BranchLP  BranchExt   BranchPS    Cutoffs    DomReds       Cuts      Conss   Children
  allfullstrong    :       0.00       0.00          0          0          0          0          0          0          0          0
  cloud            :       0.00       0.00          0          0          0          0          0          0          0          0
  distribution     :       0.00       0.00          0          0          0          0          0          0          0          0
  fullstrong       :       0.00       0.00          0          0          0          0          0          0          0          0
  inference        :       0.00       0.00          0          0          0          0          0          0          0          0
  leastinf         :       0.00       0.00          0          0          0          0          0          0          0          0
  lookahead        :       0.00       0.00          0          0          0          0          0          0          0          0
  mostinf          :       0.00       0.00          0          0          0          0          0          0          0          0
  multaggr         :       0.00       0.00          0          0          0          0          0          0          0          0
  nodereopt        :       0.00       0.00          0          0          0          0          0          0          0          0
  pscost           :       0.00       0.00          0          0          0          0          0          0          0          0
  random           :       0.00       0.00          0          0          0          0          0          0          0          0
  relpscost        :      44.06       0.00      98614          0          0          0       3650          0       1941     193968
  vanillafullstrong:       0.00       0.00          0          0          0          0          0          0          0          0
Primal Heuristics  :   ExecTime  SetupTime      Calls      Found       Best
  LP solutions     :       0.02          -          -          5          5
  relax solutions  :       0.00          -          -          0          0
  pseudo solutions :       0.00          -          -          0          0
  strong branching :       0.01          -          -          0          0
  actconsdiving    :       0.00       0.00          0          0          0
  adaptivediving   :       3.18       0.00         45          0          0
  alns             :       2.82       0.00         27          4          4
  bound            :       0.00       0.00          0          0          0
  clique           :       0.01       0.00          1          0          0
  coefdiving       :       0.00       0.00          0          0          0
  completesol      :       0.00       0.00          0          0          0
  conflictdiving   :      31.87       0.00        547          0          0
  crossover        :       0.59       0.00          7          2          2
  dins             :       0.00       0.00          0          0          0
  distributiondivin:      58.08       0.00        547          0          0
  dps              :       0.00       0.00          0          0          0
  dualval          :       0.00       0.00          0          0          0
  farkasdiving     :       0.00       0.00          0          0          0
  feaspump         :       0.00       0.00          0          0          0
  fixandinfer      :       0.00       0.00          0          0          0
  fracdiving       :      36.98       0.00        547          0          0
  gins             :       0.17       0.00          0          0          0
  guideddiving     :      32.40       0.00        547          5          5
  indicator        :       0.12       0.00          0          0          0
  indicatordiving  :       0.00       0.00          0          0          0
  intdiving        :       0.00       0.00          0          0          0
  intshifting      :       0.17       0.00         34          0          0
  linesearchdiving :      33.02       0.00        547          0          0
  localbranching   :       0.00       0.00          0          0          0
  locks            :       0.01       0.00          1          0          0
  lpface           :       0.14       0.00          0          0          0
  mpec             :      51.44       0.00          9          0          0
  multistart       :       0.00       0.00          0          0          0
  mutation         :       0.00       0.00          0          0          0
  nlpdiving        :       8.40       0.00          9          0          0
  objpscostdiving  :      85.67       0.00        164         21          3
  octane           :       0.00       0.00          0          0          0
  ofins            :       0.09       0.00          0          0          0
  oneopt           :       0.08       0.00         33          0          0
  padm             :       0.00       0.00          0          0          0
  proximity        :       0.00       0.00          0          0          0
  pscostdiving     :      40.15       0.00        547          3          3
  randrounding     :       1.10       0.00       4156          0          0
  rens             :       0.00       0.00          0          0          0
  reoptsols        :       0.00       0.00          0          0          0
  repair           :       0.00       0.00          0          0          0
  rins             :      12.44       0.00         12          0          0
  rootsoldiving    :      30.55       0.00         59          0          0
  rounding         :       0.90       0.00       4726          0          0
  shiftandpropagate:       0.00       0.00          0          0          0
  shifting         :      35.59       0.00      14705         10         10
  simplerounding   :       0.11       0.00          0          0          0
  subnlp           :     104.78       0.00          0          0          0
  trivial          :       0.01       0.00          2          2          2
  trivialnegation  :       0.00       0.00          0          0          0
  trustregion      :       0.00       0.00          0          0          0
  trysol           :       0.13       0.00          0          0          0
  twoopt           :       0.00       0.00          0          0          0
  undercover       :       0.82       0.00          1          1          1
  vbounds          :       0.00       0.00          0          0          0
  veclendiving     :      31.16       0.00        547          0          0
  zeroobj          :       0.00       0.00          0          0          0
  zirounding       :       0.52       0.00       1000          0          0
  other solutions  :          -          -          -          0          -
Diving (single)    :      Calls      Nodes   LP Iters Backtracks  Conflicts   MinDepth   MaxDepth   AvgDepth  RoundSols  NLeafSols  MinSolDpt  MaxSolDpt  AvgSolDpt
  actconsdiving    :          0          -          -          -          -          -          -          -          -          -          -          -          -
  coefdiving       :          0          -          -          -          -          -          -          -          -          -          -          -          -
  conflictdiving   :        547      16751     442723        573      14172         34         65       48.1          0          -          -          -          -
  distributiondivin:        547      12536     616586        619       7415         33         57       40.0          0          -          -          -          -
  farkasdiving     :          0          -          -          -          -          -          -          -          -          -          -          -          -
  fracdiving       :        547      65102     520469        567       5619         45        446      136.2          0          -          -          -          -
  guideddiving     :        547      52774     464484        339       4555         42        355      114.2          0          5         62         99       81.4
  indicatordiving  :          0          -          -          -          -          -          -          -          -          -          -          -          -
  linesearchdiving :        547      16822     489537        654      12643         32         78       47.8          0          -          -          -          -
  pscostdiving     :        547      17014     599015        570       8256         37         64       48.4          0          3         54         62       58.7
  veclendiving     :        547      14519     457112        560      15634         36         64       43.8          0          -          -          -          -
Diving (adaptive)  :      Calls      Nodes   LP Iters Backtracks  Conflicts   MinDepth   MaxDepth   AvgDepth  RoundSols  NLeafSols  MinSolDpt  MaxSolDpt  AvgSolDpt
  actconsdiving    :         10        242      10378         10        115         36         48       40.5          0          -          -          -          -
  coefdiving       :         15        445      12862         15        412         36         59       45.1          0          -          -          -          -
  conflictdiving   :          0          -          -          -          -          -          -          -          -          -          -          -          -
  distributiondivin:          0          -          -          -          -          -          -          -          -          -          -          -          -
  farkasdiving     :          0          -          -          -          -          -          -          -          -          -          -          -          -
  fracdiving       :          3        575       3176          2         31         62        472      210.3          0          -          -          -          -
  guideddiving     :          7       1154       7078          2         28         77        446      180.4          0          -          -          -          -
  indicatordiving  :          0          -          -          -          -          -          -          -          -          -          -          -          -
  linesearchdiving :          1         45       1290          2         25         57         57       57.0          0          -          -          -          -
  pscostdiving     :          4        122       3535          4         36         43         60       50.2          0          -          -          -          -
  veclendiving     :          5        124       4351          5        144         37         46       42.0          0          -          -          -          -
Neighborhoods      :      Calls  SetupTime  SolveTime SolveNodes       Sols       Best       Exp3  EpsGreedy        UCB TgtFixRate  Opt  Inf Node Stal  Sol  Usr Othr Actv
  rens             :          4       0.19       0.25         69          0          0    0.00000   -1.00000    0.46359      0.522    0    3    0    1    0    0    0    1
  rins             :          3       0.11       0.22         85          0          0    0.00000   -1.00000    0.45084      0.662    0    2    0    1    0    0    0    1
  mutation         :          7       0.33       0.61        443          3          3    0.00000   -1.00000    0.51906      0.615    1    3    0    3    0    0    0    1
  localbranching   :          2       0.06       0.03         19          0          0    0.00000   -1.00000    0.52748      0.550    0    2    0    0    0    0    0    1
  crossover        :          3       0.10       0.13         77          0          0    0.00000   -1.00000    0.46253      0.662    0    2    0    1    0    0    0    1
  proximity        :          2       0.07       0.07         60          0          0    0.00000   -1.00000    0.47613      0.850    0    1    0    1    0    0    0    1
  zeroobjective    :          4       0.13       0.25        118          1          1    0.00000   -1.00000    0.52295      0.578    1    2    0    1    0    0    0    1
  dins             :          2       0.07       0.03         67          0          0    0.00000   -1.00000    0.46646      0.550    0    2    0    0    0    0    0    1
  trustregion      :          0       0.00       0.00          0          0          0    0.00000   -1.00000    1.00000      0.900    0    0    0    0    0    0    0    0
Expressions        :   #IntEval  IntEvalTi   #RevProp  RevPropTi    DomReds    Cutoffs  #Estimate  EstimTime  Branching  #Simplify SimplifyTi Simplified
  pow              :          0       0.00          0       0.00          0          0          0       0.00          0          0       0.00          0
  prod             :       6320       0.00          0       0.00          0          0          0       0.00          0       4690       0.00          0
  sum              :          8       0.00          2       0.00          0          0          0       0.00          0          3       0.03          2
  var              :       5485       0.00          0       0.00          0          0          0       0.00          0      11154       0.02          0
  varidx           :          0       0.00          0       0.00          0          0          0       0.00          0          0       0.00          0
LP                 :       Time      Calls Iterations  Iter/call   Iter/sec  Time-0-It Calls-0-It    ItLimit
  primal LP        :     117.29      13719          0       0.00       0.00     117.22      13719
  dual LP          :    2570.38     211172   18579478      98.17    7228.30       6.74      21914
  lex dual LP      :       0.00          0          0       0.00          -
  barrier LP       :       0.00          0          0       0.00          -       0.00          0
  resolve instable :       0.00          0          0       0.00          -
  diving/probing LP:     331.78      19204    4638456     241.54   13980.52
  strong branching :      19.90       2874     282554      98.31   14198.69          -          -         47
    (at root node) :          -         19       5550     292.11          -
  conflict analysis:       3.96       3638      35692       9.81    9013.13
NLP relaxation     :
  solve time       :       8.38 (9 calls)
  convexity        :  nonconvex (4 linear rows, 0 convex ineq., 0 nonconvex ineq., 1530 nonlinear eq. or two-sided ineq.)
NLP Solvers        :  #Problems  ProblemTi    #Solves  SolveTime      #Iter  Time/Iter      #Okay #TimeLimit #IterLimit #LObjLimit #Interrupt  #NumError #EvalError  #OutOfMem #LicenseEr #OtherTerm   #GlobOpt    #LocOpt  #Feasible #LocInfeas #GlobInfea #Unbounded   #Unknown
  ipopt            :         10       5.28         24      60.03       1208       0.05         24          0          0          0          0          0          0          0          0          0          0          0          0         15          0          0          9
B&B Tree           :
  number of runs   :          1
  nodes            :     168326 (96984 internal, 71342 leaves)
  feasible leaves  :          5
  infeas. leaves   :          9
  objective leaves :      71328
  nodes (total)    :     168326 (96984 internal, 71342 leaves)
  nodes left       :      25625
  max depth        :         50
  max depth (total):         50
  backtracks       :      34580 (20.5%)
  early backtracks :          0 (0.0%)
  nodes exc. ref.  :          0 (0.0%)
  delayed cutoffs  :          1
  repropagations   :       1272 (70 domain reductions, 0 cutoffs)
  avg switch length:       4.23
  switching time   :     140.17
Estim. Tree Size   :     336688
Estimation Tree    : 193969 nodes (168344 visited, 96984 internal, 71360 leaves, 25625 open), weight: 0.0000 completed 0.0906
Estimations        :      estim      value      trend resolution     smooth
  wbe              : 27123958669          -          -          -          -
  tree-profile     :         -1          -          -          -          -
  gap              :    2072974    0.79839    0.00003        128    2210774
  tree-weight      :     336688    0.00001    0.00000        128     336151
  leaf-frequency   :    1467975    0.42389    0.00001        128    1314874
  ssg              :    6001779    0.85700   -0.00004        128    6344797
  open-nodes       :     336688 25625.00000   17.95541        128     336151
Root Node          :
  First LP value   : -1.00000000000000e+00
  First LP Iters   :       1020 (12750.00 Iter/sec)
  First LP Time    :       0.08
  Final Dual Bound : -9.06090378321598e-01
  Final Root Iters :       4654
  Root LP Estimate : -5.10523839789882e-01
Solution           :
  Solutions found  :         53 (35 improvements)
  First Solution   : +1.00000000000000e+05   (in run 1, after 0 nodes, 0.00 seconds, depth 0, found by <trivial>)
  Gap First Sol.   :   infinite
  Gap Last Sol.    :      29.91 %
  Primal Bound     : -5.75316455696202e-01   (in run 1, after 65180 nodes, 1486.71 seconds, depth 42, found by <relaxation>)
  Dual Bound       : -7.20595991561182e-01
  Gap              :      25.25 %
Integrals          :      Total       Avg%
  primal-dual      :   85150.77      23.65
  primal-ref       :          -          - (not evaluated)
  dual-ref         :          -          - (not evaluated)
